; SWAP2 SWAP1 MLOAD SWAP2 LT POP => POP MLOAD SWAP1 POP
(set-option :produce-proofs true)
; 
(set-info :status unknown)
(declare-fun storage_t ((_ BitVec 256) (_ BitVec 256) (_ BitVec 256) (_ BitVec 256) Int (_ BitVec 256)) (_ BitVec 256))
(declare-fun storage_s ((_ BitVec 256) (_ BitVec 256) (_ BitVec 256) (_ BitVec 256) Int (_ BitVec 256)) (_ BitVec 256))
(declare-fun exc_halt_t (Int) Bool)
(declare-fun exc_halt_s (Int) Bool)
(declare-fun stack_t ((_ BitVec 256) (_ BitVec 256) (_ BitVec 256) (_ BitVec 256) Int (_ BitVec 6)) (_ BitVec 256))
(declare-fun stack_s ((_ BitVec 256) (_ BitVec 256) (_ BitVec 256) (_ BitVec 256) Int (_ BitVec 6)) (_ BitVec 256))
(declare-fun sc_t (Int) (_ BitVec 6))
(declare-fun sc_s (Int) (_ BitVec 6))
(declare-fun used_gas_t ((_ BitVec 256) (_ BitVec 256) (_ BitVec 256) (_ BitVec 256) Int) Int)
(declare-fun used_gas_s ((_ BitVec 256) (_ BitVec 256) (_ BitVec 256) (_ BitVec 256) Int) Int)
(declare-fun f_MLOAD ((_ BitVec 256) (_ BitVec 256) (_ BitVec 256) (_ BitVec 256) (_ BitVec 256)) (_ BitVec 256))
(assert
 (exists ((x_0 (_ BitVec 256)) (x_1 (_ BitVec 256)) (x_2 (_ BitVec 256)) (x_MLOAD_0 (_ BitVec 256)) )(let (($x3665 (forall ((w (_ BitVec 256)) )(let ((?x10325 (storage_t x_0 x_1 x_2 x_MLOAD_0 4 w)))
 (let ((?x3666 (storage_s x_0 x_1 x_2 x_MLOAD_0 6 w)))
 (= ?x3666 ?x10325))))
 ))
 (let (($x566 (exc_halt_t 4)))
 (let (($x772 (exc_halt_s 6)))
 (let (($x423 (= $x772 $x566)))
 (let (($x9617 (forall ((n (_ BitVec 6)) )(let ((?x10326 (stack_t x_0 x_1 x_2 x_MLOAD_0 4 n)))
 (let ((?x10327 (stack_s x_0 x_1 x_2 x_MLOAD_0 6 n)))
 (let (($x10328 (= ?x10327 ?x10326)))
 (or (bvsle (sc_t 4) n) $x10328)))))
 ))
 (let ((?x518 (sc_t 4)))
 (let ((?x926 (sc_s 6)))
 (let (($x613 (= ?x926 ?x518)))
 (let ((?x10316 (used_gas_t x_0 x_1 x_2 x_MLOAD_0 0)))
 (let ((?x10320 (used_gas_s x_0 x_1 x_2 x_MLOAD_0 0)))
 (let (($x10317 (= ?x10320 ?x10316)))
 (let (($x10314 (forall ((w (_ BitVec 256)) )(let ((?x10321 (storage_t x_0 x_1 x_2 x_MLOAD_0 0 w)))
 (let ((?x10313 (storage_s x_0 x_1 x_2 x_MLOAD_0 0 w)))
 (= ?x10313 ?x10321))))
 ))
 (let (($x56 (exc_halt_t 0)))
 (let (($x57 (exc_halt_s 0)))
 (let (($x58 (= $x57 $x56)))
 (let (($x657 (forall ((n (_ BitVec 6)) )(let ((?x10305 (stack_t x_0 x_1 x_2 x_MLOAD_0 0 n)))
 (let ((?x10306 (stack_s x_0 x_1 x_2 x_MLOAD_0 0 n)))
 (let (($x10307 (= ?x10306 ?x10305)))
 (or (bvsle (sc_t 0) n) $x10307)))))
 ))
 (let ((?x63 (sc_t 0)))
 (let ((?x72 (sc_s 0)))
 (let (($x73 (= ?x72 ?x63)))
 (let (($x10040 (= $x566 (or (exc_halt_t 3) (not (bvsle (_ bv0 6) (bvadd (_ bv63 6) (sc_t 3))))))))
 (let (($x8610 (forall ((w (_ BitVec 256)) )(let ((?x3064 (storage_t x_0 x_1 x_2 x_MLOAD_0 3 w)))
 (let ((?x10325 (storage_t x_0 x_1 x_2 x_MLOAD_0 4 w)))
 (= ?x10325 ?x3064))))
 ))
 (let (($x9602 (forall ((n (_ BitVec 6)) )(let ((?x10310 (stack_t x_0 x_1 x_2 x_MLOAD_0 3 n)))
 (let ((?x10326 (stack_t x_0 x_1 x_2 x_MLOAD_0 4 n)))
 (or (= ?x10326 ?x10310) (bvsle (bvadd (_ bv63 6) (sc_t 3)) n)))))
 ))
 (let (($x3470 (= (used_gas_t x_0 x_1 x_2 x_MLOAD_0 4) (+ 2 (used_gas_t x_0 x_1 x_2 x_MLOAD_0 3)))))
 (let (($x10336 (exc_halt_t 3)))
 (let (($x9411 (= $x10336 (or (exc_halt_t 2) (not (bvsle (_ bv0 6) (bvadd (_ bv62 6) (sc_t 2))))))))
 (let (($x9575 (forall ((w (_ BitVec 256)) )(let ((?x10294 (storage_t x_0 x_1 x_2 x_MLOAD_0 2 w)))
 (let ((?x3064 (storage_t x_0 x_1 x_2 x_MLOAD_0 3 w)))
 (= ?x3064 ?x10294))))
 ))
 (let (($x9570 (forall ((n (_ BitVec 6)) )(let ((?x10284 (stack_t x_0 x_1 x_2 x_MLOAD_0 2 n)))
 (let ((?x10310 (stack_t x_0 x_1 x_2 x_MLOAD_0 3 n)))
 (or (bvsle (bvadd (_ bv62 6) (sc_t 2)) n) (= ?x10310 ?x10284)))))
 ))
 (let ((?x10296 (used_gas_t x_0 x_1 x_2 x_MLOAD_0 3)))
 (let ((?x4404 (stack_t x_0 x_1 x_2 x_MLOAD_0 2 (bvadd (_ bv63 6) (sc_t 2)))))
 (let (($x3552 (= (stack_t x_0 x_1 x_2 x_MLOAD_0 3 (bvadd (_ bv62 6) (sc_t 3))) ?x4404)))
 (let (($x14 (= (stack_t x_0 x_1 x_2 x_MLOAD_0 3 (bvadd (_ bv63 6) (sc_t 3))) (stack_t x_0 x_1 x_2 x_MLOAD_0 2 (bvadd (_ bv62 6) (sc_t 2))))))
 (let (($x903 (exc_halt_t 2)))
 (let (($x9676 (= $x903 (or (exc_halt_t 1) (not (bvsle (_ bv0 6) (bvadd (_ bv63 6) (sc_t 1))))))))
 (let (($x9666 (forall ((w (_ BitVec 256)) )(let ((?x4087 (storage_t x_0 x_1 x_2 x_MLOAD_0 1 w)))
 (let ((?x10294 (storage_t x_0 x_1 x_2 x_MLOAD_0 2 w)))
 (= ?x10294 ?x4087))))
 ))
 (let (($x9746 (forall ((n (_ BitVec 6)) )(let ((?x4801 (stack_t x_0 x_1 x_2 x_MLOAD_0 1 n)))
 (let ((?x10284 (stack_t x_0 x_1 x_2 x_MLOAD_0 2 n)))
 (or (= ?x10284 ?x4801) (bvsle (bvadd (_ bv63 6) (sc_t 1)) n)))))
 ))
 (let ((?x8899 (used_gas_t x_0 x_1 x_2 x_MLOAD_0 2)))
 (let ((?x9422 (f_MLOAD x_0 x_1 x_2 x_MLOAD_0 (stack_t x_0 x_1 x_2 x_MLOAD_0 1 (bvadd (_ bv63 6) (sc_t 1))))))
 (let (($x853 (forall ((w (_ BitVec 256)) )(let ((?x10321 (storage_t x_0 x_1 x_2 x_MLOAD_0 0 w)))
 (let ((?x4087 (storage_t x_0 x_1 x_2 x_MLOAD_0 1 w)))
 (= ?x4087 ?x10321))))
 ))
 (let (($x1110 (forall ((n (_ BitVec 6)) )(let ((?x10305 (stack_t x_0 x_1 x_2 x_MLOAD_0 0 n)))
 (let ((?x4801 (stack_t x_0 x_1 x_2 x_MLOAD_0 1 n)))
 (or (= ?x4801 ?x10305) (bvsle (bvadd (_ bv63 6) (sc_t 0)) n)))))
 ))
 (let (($x10002 (= $x772 (or (exc_halt_s 5) (not (bvsle (_ bv0 6) (bvadd (_ bv63 6) (sc_s 5))))))))
 (let (($x9568 (forall ((w (_ BitVec 256)) )(let ((?x9813 (storage_s x_0 x_1 x_2 x_MLOAD_0 5 w)))
 (let ((?x3666 (storage_s x_0 x_1 x_2 x_MLOAD_0 6 w)))
 (= ?x3666 ?x9813))))
 ))
 (let (($x9708 (forall ((n (_ BitVec 6)) )(let ((?x9781 (stack_s x_0 x_1 x_2 x_MLOAD_0 5 n)))
 (let ((?x10327 (stack_s x_0 x_1 x_2 x_MLOAD_0 6 n)))
 (or (= ?x10327 ?x9781) (bvsle (bvadd (_ bv63 6) (sc_s 5)) n)))))
 ))
 (let (($x9517 (= (used_gas_s x_0 x_1 x_2 x_MLOAD_0 6) (+ 2 (used_gas_s x_0 x_1 x_2 x_MLOAD_0 5)))))
 (let (($x3979 (exc_halt_s 5)))
 (let (($x3942 (= $x3979 (or (exc_halt_s 4) (not (bvsle (_ bv0 6) (bvadd (_ bv62 6) (sc_s 4))))))))
 (let (($x9463 (forall ((w (_ BitVec 256)) )(let ((?x9870 (storage_s x_0 x_1 x_2 x_MLOAD_0 4 w)))
 (let ((?x9813 (storage_s x_0 x_1 x_2 x_MLOAD_0 5 w)))
 (= ?x9813 ?x9870))))
 ))
 (let (($x9550 (forall ((n (_ BitVec 6)) )(let ((?x9439 (stack_s x_0 x_1 x_2 x_MLOAD_0 4 n)))
 (let ((?x9781 (stack_s x_0 x_1 x_2 x_MLOAD_0 5 n)))
 (or (= ?x9781 ?x9439) (bvsle (bvadd (_ bv62 6) (sc_s 4)) n)))))
 ))
 (let ((?x1248 (used_gas_s x_0 x_1 x_2 x_MLOAD_0 5)))
 (let ((?x4305 (sc_s 4)))
 (let ((?x9580 (bvadd (_ bv63 6) ?x4305)))
 (let ((?x9582 (stack_s x_0 x_1 x_2 x_MLOAD_0 4 ?x9580)))
 (let ((?x8894 (bvadd (_ bv62 6) ?x4305)))
 (let ((?x9432 (stack_s x_0 x_1 x_2 x_MLOAD_0 4 ?x8894)))
 (let (($x9544 (= (stack_s x_0 x_1 x_2 x_MLOAD_0 5 (bvadd (_ bv63 6) (sc_s 5))) (ite (bvule ?x9432 ?x9582) (_ bv0 256) (_ bv1 256)))))
 (let (($x64 (exc_halt_s 4)))
 (let (($x3680 (= $x64 (or (exc_halt_s 3) (not (bvsle (_ bv0 6) (bvadd (_ bv61 6) (sc_s 3))))))))
 (let (($x9540 (forall ((w (_ BitVec 256)) )(let ((?x9915 (storage_s x_0 x_1 x_2 x_MLOAD_0 3 w)))
 (let ((?x9870 (storage_s x_0 x_1 x_2 x_MLOAD_0 4 w)))
 (= ?x9870 ?x9915))))
 ))
 (let (($x9547 (forall ((n (_ BitVec 6)) )(let ((?x10448 (stack_s x_0 x_1 x_2 x_MLOAD_0 3 n)))
 (let ((?x9439 (stack_s x_0 x_1 x_2 x_MLOAD_0 4 n)))
 (or (bvsle (bvadd (_ bv61 6) (sc_s 3)) n) (= ?x9439 ?x10448)))))
 ))
 (let ((?x2806 (used_gas_s x_0 x_1 x_2 x_MLOAD_0 4)))
 (let (($x3508 (= ?x9432 (stack_s x_0 x_1 x_2 x_MLOAD_0 3 (bvadd (_ bv62 6) (sc_s 3))))))
 (let ((?x9612 (stack_s x_0 x_1 x_2 x_MLOAD_0 3 (bvadd (_ bv63 6) (sc_s 3)))))
 (let (($x3565 (= ?x9582 (stack_s x_0 x_1 x_2 x_MLOAD_0 3 (bvadd (_ bv61 6) (sc_s 3))))))
 (let (($x292 (exc_halt_s 3)))
 (let (($x9581 (= $x292 (or (exc_halt_s 2) (not (bvsle (_ bv0 6) (bvadd (_ bv63 6) (sc_s 2))))))))
 (let (($x9615 (forall ((w (_ BitVec 256)) )(let ((?x901 (storage_s x_0 x_1 x_2 x_MLOAD_0 2 w)))
 (let ((?x9915 (storage_s x_0 x_1 x_2 x_MLOAD_0 3 w)))
 (= ?x9915 ?x901))))
 ))
 (let (($x9589 (forall ((n (_ BitVec 6)) )(let ((?x9409 (stack_s x_0 x_1 x_2 x_MLOAD_0 2 n)))
 (let ((?x10448 (stack_s x_0 x_1 x_2 x_MLOAD_0 3 n)))
 (or (bvsle (bvadd (_ bv63 6) (sc_s 2)) n) (= ?x10448 ?x9409)))))
 ))
 (let ((?x875 (used_gas_s x_0 x_1 x_2 x_MLOAD_0 3)))
 (let ((?x218 (sc_s 2)))
 (let ((?x9655 (bvadd (_ bv63 6) ?x218)))
 (let ((?x9621 (stack_s x_0 x_1 x_2 x_MLOAD_0 2 ?x9655)))
 (let (($x247 (exc_halt_s 2)))
 (let (($x9594 (= $x247 (or (exc_halt_s 1) (not (bvsle (_ bv0 6) (bvadd (_ bv62 6) (sc_s 1))))))))
 (let (($x9270 (forall ((w (_ BitVec 256)) )(let ((?x2132 (storage_s x_0 x_1 x_2 x_MLOAD_0 1 w)))
 (let ((?x901 (storage_s x_0 x_1 x_2 x_MLOAD_0 2 w)))
 (= ?x901 ?x2132))))
 ))
 (let (($x4957 (forall ((n (_ BitVec 6)) )(let ((?x792 (stack_s x_0 x_1 x_2 x_MLOAD_0 1 n)))
 (let ((?x9409 (stack_s x_0 x_1 x_2 x_MLOAD_0 2 n)))
 (or (= ?x9409 ?x792) (bvsle (bvadd (_ bv62 6) (sc_s 1)) n)))))
 ))
 (let ((?x9512 (used_gas_s x_0 x_1 x_2 x_MLOAD_0 2)))
 (let ((?x9651 (stack_s x_0 x_1 x_2 x_MLOAD_0 1 (bvadd (_ bv63 6) (sc_s 1)))))
 (let ((?x154 (sc_s 1)))
 (let ((?x9695 (bvadd (_ bv62 6) ?x154)))
 (let ((?x9630 (stack_s x_0 x_1 x_2 x_MLOAD_0 1 ?x9695)))
 (let (($x9619 (forall ((w (_ BitVec 256)) )(let ((?x10313 (storage_s x_0 x_1 x_2 x_MLOAD_0 0 w)))
 (let ((?x2132 (storage_s x_0 x_1 x_2 x_MLOAD_0 1 w)))
 (= ?x2132 ?x10313))))
 ))
 (let (($x360 (forall ((n (_ BitVec 6)) )(let ((?x10306 (stack_s x_0 x_1 x_2 x_MLOAD_0 0 n)))
 (let ((?x792 (stack_s x_0 x_1 x_2 x_MLOAD_0 1 n)))
 (or (bvsle (bvadd (_ bv61 6) (sc_s 0)) n) (= ?x792 ?x10306)))))
 ))
 (let (($x9349 (= (stack_s x_0 x_1 x_2 x_MLOAD_0 1 (bvadd (_ bv61 6) ?x154)) (stack_s x_0 x_1 x_2 x_MLOAD_0 0 (bvadd (_ bv63 6) ?x72)))))
 (let (($x9645 (forall ((w0 (_ BitVec 256)) )(let (($x9648 (= (stack_s x_0 x_1 x_2 x_MLOAD_0 2 (bvadd (_ bv63 6) (sc_s 2))) w0)))
 (let ((?x528 (f_MLOAD x_0 x_1 x_2 x_MLOAD_0 w0)))
 (= ?x528 (ite $x9648 x_MLOAD_0 (_ bv0 256))))))
 ))
 (let (($x3920 (forall ((w (_ BitVec 256)) )(let ((?x10313 (storage_s x_0 x_1 x_2 x_MLOAD_0 0 w)))
 (= ?x10313 (_ bv0 256))))
 ))
 (let (($x553 (= ?x10320 0)))
 (let (($x9685 (= (stack_s x_0 x_1 x_2 x_MLOAD_0 0 (_ bv2 6)) x_2)))
 (let (($x9677 (= (stack_s x_0 x_1 x_2 x_MLOAD_0 0 (_ bv1 6)) x_1)))
 (let (($x9678 (= (stack_s x_0 x_1 x_2 x_MLOAD_0 0 (_ bv0 6)) x_0)))
 (let (($x96 (= ?x72 (_ bv3 6))))
 (and $x96 $x9678 $x9677 $x9685 (not $x57) $x553 $x3920 $x9645 (= ?x9651 (stack_s x_0 x_1 x_2 x_MLOAD_0 0 (bvadd (_ bv61 6) ?x72))) $x9349 (= ?x9630 (stack_s x_0 x_1 x_2 x_MLOAD_0 0 (bvadd (_ bv62 6) ?x72))) (= (used_gas_s x_0 x_1 x_2 x_MLOAD_0 1) (+ 3 ?x10320)) (= ?x154 ?x72) $x360 $x9619 (= (exc_halt_s 1) (or $x57 (not (bvsle (_ bv0 6) (bvadd (_ bv61 6) ?x72))))) (= ?x9621 ?x9630) (= (stack_s x_0 x_1 x_2 x_MLOAD_0 2 (bvadd (_ bv62 6) ?x218)) ?x9651) (= ?x9512 (+ 3 (used_gas_s x_0 x_1 x_2 x_MLOAD_0 1))) (= ?x218 ?x154) $x4957 $x9270 $x9594 (= ?x9612 (f_MLOAD x_0 x_1 x_2 x_MLOAD_0 ?x9621)) (= ?x875 (+ 3 ?x9512)) (= (sc_s 3) ?x218) $x9589 $x9615 $x9581 $x3565 (= (stack_s x_0 x_1 x_2 x_MLOAD_0 4 (bvadd (_ bv61 6) ?x4305)) ?x9612) $x3508 (= ?x2806 (+ 3 ?x875)) (= ?x4305 (sc_s 3)) $x9547 $x9540 $x3680 $x9544 (= ?x1248 (+ 3 ?x2806)) (= (sc_s 5) ?x9580) $x9550 $x9463 $x3942 $x9517 (= ?x926 (bvadd (_ bv63 6) (sc_s 5))) $x9708 $x9568 $x10002 (= (used_gas_t x_0 x_1 x_2 x_MLOAD_0 1) (+ 2 ?x10316)) (= (sc_t 1) (bvadd (_ bv63 6) ?x63)) $x1110 $x853 (= (exc_halt_t 1) (or $x56 (not (bvsle (_ bv0 6) (bvadd (_ bv63 6) ?x63))))) (= ?x4404 ?x9422) (= ?x8899 (+ 3 (used_gas_t x_0 x_1 x_2 x_MLOAD_0 1))) (= (sc_t 2) (sc_t 1)) $x9746 $x9666 $x9676 $x14 $x3552 (= ?x10296 (+ 3 ?x8899)) (= (sc_t 3) (sc_t 2)) $x9570 $x9575 $x9411 $x3470 (= ?x518 (bvadd (_ bv63 6) (sc_t 3))) $x9602 $x8610 $x10040 $x73 $x657 $x58 $x10314 $x10317 (not (and $x613 $x9617 $x423 $x3665)))))))))))))))))))))))))))))))))))))))))))))))))))))))))))))))))))))))))))))))))))))))))))))
 )
(check-sat)
(get-proof)
